20	100	100	100
7	100	100
49	100	100
45	100	100
43	100	100
45	100	100
5	100	100
17	100	100
11	100	100
44	100	100
39	100	100
33	100	100
28	100	100
11	100	100
27	100	100
6	100	100
19	100	100
38	100	100
19	100	100
7	100	100
3	100	100
